#######################################
### Exact MIP solver for the HHCRSP ###
#######################################
-- Instance file: new-instances/HHCRSP_25_5_96_1.6_C_RC.txt
-- Max threads: 4
-- Time limit: 999999 seconds
-- Use initial solution: No
Trivial flow violations prevented generating 774 variables.
Model exported.
Version identifier: 20.1.0.0 | 2020-11-10 | 9bedb6d68
CPXPARAM_Threads                                 4
CPXPARAM_TimeLimit                               999999
Tried aggregator 1 time.
LP Presolve eliminated 310 rows and 109 columns.
Reduced LP has 836 rows, 818 columns, and 5147 nonzeros.
Presolve time = 0.00 sec. (1.93 ticks)

Iteration log . . .
Iteration:     1   Dual objective     =             0.000000
Iteration:   101   Dual objective     =            85.000000

Solution status from MIP model:
-- Processing time: 0.005 sec.
-- Memory used: 14.6484 MB
-- Best bound: inf
-- Obj value: 85.0213
-- Gap: inf%
-- Total distance: 255.064
-- Total tardiness: 0
-- Largest tardiness: 0
